c turning on binary mode checking
c parsing input formula with 259840 variables and 1039934 clauses
c finished parsing, read 3028836 bytes from proof file
c detected empty clause; start verification via backward checking
c 6694 of 1039934 clauses in core                            
c 2008 of 121616 lemmas in core using 91014 resolution steps
c 0 RAT lemmas in core; 217 redundant literals in core lemmas
s VERIFIED
c verification time: 1.529 seconds
